30
1 0 2
2 0 3
2 1 8
3 0 3
3 1 4
3 2 5
4 0 6
4 1 8
4 2 8
4 3 4
5 0 4
5 1 1
5 2 4
5 3 6
5 4 3
6 0 2
6 1 7
6 2 2
6 3 2
6 4 4
6 5 8
7 0 3
7 1 7
7 2 2
7 3 8
7 4 3
7 5 1
7 6 6
8 0 2
8 1 1
8 2 8
8 3 1
8 4 8
8 5 8
8 6 1
8 7 8
9 0 2
9 1 7
9 2 2
9 3 4
9 4 3
9 5 6
9 6 6
9 7 5
9 8 2
10 0 4
10 1 4
10 2 7
10 3 3
10 4 2
10 5 3
10 6 1
10 7 2
10 8 3
10 9 6
11 0 8
11 1 1
11 2 8
11 3 8
11 4 4
11 5 3
11 6 1
11 7 1
11 8 6
11 9 2
11 10 3
12 0 2
12 1 6
12 2 3
12 3 1
12 4 6
12 5 5
12 6 6
12 7 2
12 8 5
12 9 1
12 10 2
12 11 7
13 0 5
13 1 6
13 2 4
13 3 8
13 4 5
13 5 8
13 6 8
13 7 3
13 8 1
13 9 3
13 10 8
13 11 7
13 12 2
14 0 8
14 1 2
14 2 3
14 3 7
14 4 1
14 5 3
14 6 1
14 7 2
14 8 2
14 9 2
14 10 7
14 11 1
14 12 6
14 13 6
15 0 2
15 1 4
15 2 2
15 3 2
15 4 3
15 5 1
15 6 7
15 7 2
15 8 7
15 9 5
15 10 5
15 11 7
15 12 3
15 13 6
15 14 7
16 0 1
16 1 7
16 2 8
16 3 7
16 4 3
16 5 2
16 6 4
16 7 1
16 8 2
16 9 3
16 10 3
16 11 6
16 12 8
16 13 8
16 14 7
16 15 4
17 0 2
17 1 4
17 2 5
17 3 8
17 4 2
17 5 4
17 6 3
17 7 7
17 8 8
17 9 6
17 10 7
17 11 8
17 12 4
17 13 5
17 14 4
17 15 2
17 16 6
18 0 2
18 1 7
18 2 5
18 3 8
18 4 8
18 5 7
18 6 7
18 7 6
18 8 8
18 9 8
18 10 6
18 11 2
18 12 3
18 13 1
18 14 2
18 15 4
18 16 3
18 17 7
19 0 2
19 1 4
19 2 7
19 3 1
19 4 1
19 5 3
19 6 4
19 7 8
19 8 3
19 9 2
19 10 2
19 11 3
19 12 2
19 13 4
19 14 1
19 15 5
19 16 7
19 17 6
19 18 4
20 0 2
20 1 7
20 2 2
20 3 5
20 4 3
20 5 7
20 6 3
20 7 2
20 8 3
20 9 7
20 10 3
20 11 6
20 12 4
20 13 8
20 14 1
20 15 6
20 16 4
20 17 7
20 18 4
20 19 3
21 0 6
21 1 2
21 2 4
21 3 1
21 4 5
21 5 3
21 6 8
21 7 5
21 8 6
21 9 7
21 10 3
21 11 2
21 12 6
21 13 5
21 14 3
21 15 7
21 16 4
21 17 1
21 18 8
21 19 2
21 20 2
22 0 4
22 1 2
22 2 1
22 3 6
22 4 8
22 5 1
22 6 8
22 7 5
22 8 5
22 9 5
22 10 6
22 11 8
22 12 7
22 13 7
22 14 6
22 15 4
22 16 1
22 17 4
22 18 7
22 19 5
22 20 2
22 21 5
23 0 2
23 1 8
23 2 6
23 3 2
23 4 2
23 5 4
23 6 1
23 7 2
23 8 3
23 9 7
23 10 5
23 11 7
23 12 2
23 13 4
23 14 5
23 15 6
23 16 5
23 17 2
23 18 6
23 19 3
23 20 6
23 21 4
23 22 8
24 0 6
24 1 5
24 2 7
24 3 5
24 4 8
24 5 6
24 6 6
24 7 5
24 8 7
24 9 7
24 10 4
24 11 6
24 12 5
24 13 3
24 14 6
24 15 6
24 16 2
24 17 7
24 18 3
24 19 6
24 20 3
24 21 1
24 22 6
24 23 1
25 0 6
25 1 4
25 2 5
25 3 7
25 4 6
25 5 4
25 6 8
25 7 4
25 8 1
25 9 8
25 10 1
25 11 6
25 12 5
25 13 6
25 14 4
25 15 6
25 16 7
25 17 1
25 18 3
25 19 8
25 20 4
25 21 7
25 22 5
25 23 5
25 24 5
26 0 8
26 1 6
26 2 4
26 3 8
26 4 6
26 5 8
26 6 1
26 7 2
26 8 1
26 9 2
26 10 5
26 11 4
26 12 3
26 13 8
26 14 7
26 15 8
26 16 2
26 17 4
26 18 5
26 19 4
26 20 3
26 21 5
26 22 5
26 23 2
26 24 6
26 25 1
27 0 6
27 1 2
27 2 4
27 3 5
27 4 8
27 5 6
27 6 2
27 7 8
27 8 5
27 9 1
27 10 6
27 11 3
27 12 7
27 13 6
27 14 1
27 15 4
27 16 3
27 17 4
27 18 6
27 19 7
27 20 6
27 21 7
27 22 7
27 23 4
27 24 1
27 25 3
27 26 1
28 0 8
28 1 6
28 2 2
28 3 8
28 4 5
28 5 4
28 6 2
28 7 3
28 8 2
28 9 8
28 10 2
28 11 7
28 12 2
28 13 6
28 14 1
28 15 7
28 16 5
28 17 8
28 18 3
28 19 1
28 20 5
28 21 2
28 22 3
28 23 6
28 24 3
28 25 6
28 26 1
28 27 4
29 0 6
29 1 3
29 2 7
29 3 1
29 4 7
29 5 8
29 6 5
29 7 7
29 8 4
29 9 7
29 10 7
29 11 1
29 12 4
29 13 1
29 14 1
29 15 8
29 16 8
29 17 7
29 18 3
29 19 5
29 20 5
29 21 1
29 22 2
29 23 4
29 24 8
29 25 4
29 26 5
29 27 6
29 28 6
